100
128
27
5
12
23
28
6
11
13
60
44
64
11
20
36
33
2
49
32
10
14
6
18
16
25
20
1
26
41
24
1
62
25
27
38
37
21
36
23
21
56
38
29
51
28
25
40
29
22
37
25
22
39
35
46
39
35
54
25
54
49
30
21
29
26
30
24
48
34
39
62
32
29
34
23
26
22
19
56
23
22
26
4
56
4
2
63
54
28
46
39
48
64
64
1
41
47
64
64
40
40